decision_x1=[0,2];
decision_x2=[0,2];
decision_x3=[0,2];
decision_x4=[0,2];
decision_x5=[0,2];
decision_x6=[0,2];
decision_x7=[0,2];
decision_x8=[0,2];
decision_x9=[0,2];
decision_x10=[0,2];
decision_x11=[0,2];
decision_x12=[0,2];
random_y1=[0,2];
random_y2=[0,2];
random_y3=[0,2];
constraint_x3_x1=[
0,0,6.6|
0,1,4.4|
0,2,4.5|
1,0,3.5|
1,1,1.3|
1,2,6.2|
2,0,7.2|
2,1,6.5|
2,2,2.9|
];
constraint_x3_x2=[
0,0,8.7|
0,1,5.5|
0,2,5.3|
1,0,0.3|
1,1,3|
1,2,1.8|
2,0,9.9|
2,1,4.3|
2,2,6.3|
];
constraint_x4_x2=[
0,0,7.6|
0,1,8.9|
0,2,7.3|
1,0,1.8|
1,1,6.6|
1,2,0.72|
2,0,2.8|
2,1,4.6|
2,2,1.6|
];
constraint_x5_x1=[
0,0,1.6|
0,1,5.2|
0,2,9.3|
1,0,2.3|
1,1,3.9|
1,2,2.8|
2,0,2.5|
2,1,6.7|
2,2,7.8|
];
constraint_x5_x2=[
0,0,2.4|
0,1,0.81|
0,2,7.8|
1,0,1.4|
1,1,8.2|
1,2,1.9|
2,0,5.1|
2,1,5.1|
2,2,5.5|
];
constraint_x5_x3=[
0,0,7.4|
0,1,3.7|
0,2,6.9|
1,0,5.3|
1,1,0.13|
1,2,8.4|
2,0,5|
2,1,5.9|
2,2,9.9|
];
constraint_x6_x4=[
0,0,9.4|
0,1,0.91|
0,2,7.4|
1,0,7.7|
1,1,3.3|
1,2,7.9|
2,0,3.7|
2,1,8.6|
2,2,2.3|
];
constraint_x6_x5=[
0,0,0.73|
0,1,0.62|
0,2,1.3|
1,0,2.4|
1,1,3.5|
1,2,1.4|
2,0,8|
2,1,7|
2,2,6.6|
];
constraint_x7_x2=[
0,0,0.39|
0,1,7.8|
0,2,7.9|
1,0,7.8|
1,1,7.3|
1,2,4.6|
2,0,6.2|
2,1,3.4|
2,2,8.9|
];
constraint_x7_x3=[
0,0,9.3|
0,1,7.9|
0,2,1.9|
1,0,2|
1,1,7.8|
1,2,4.1|
2,0,9.9|
2,1,3.8|
2,2,5.5|
];
constraint_x7_x6=[
0,0,2.9|
0,1,3.9|
0,2,6.8|
1,0,6.8|
1,1,7|
1,2,4|
2,0,5.3|
2,1,8.3|
2,2,2.7|
];
constraint_x8_x2=[
0,0,5.3|
0,1,7.5|
0,2,9.7|
1,0,6.1|
1,1,4.8|
1,2,6.4|
2,0,1.9|
2,1,8|
2,2,7.4|
];
constraint_x8_x4=[
0,0,2.3|
0,1,5.3|
0,2,9.4|
1,0,4.8|
1,1,1|
1,2,2.5|
2,0,2.2|
2,1,3|
2,2,9.6|
];
constraint_x8_x5=[
0,0,9.6|
0,1,8.2|
0,2,4|
1,0,6.4|
1,1,3.6|
1,2,9.3|
2,0,5.1|
2,1,0.18|
2,2,9.4|
];
constraint_x9_x2=[
0,0,4.8|
0,1,5.4|
0,2,5.3|
1,0,7|
1,1,6.7|
1,2,1.5|
2,0,1.6|
2,1,7.6|
2,2,2.7|
];
constraint_x9_x3=[
0,0,4|
0,1,2.5|
0,2,1.8|
1,0,8|
1,1,6|
1,2,5.3|
2,0,0.77|
2,1,5.9|
2,2,1.4|
];
constraint_x9_x4=[
0,0,0.04|
0,1,5.7|
0,2,7.9|
1,0,7.4|
1,1,6|
1,2,4.9|
2,0,5.5|
2,1,0.87|
2,2,5.3|
];
constraint_x9_x7=[
0,0,8.2|
0,1,7.9|
0,2,7.3|
1,0,3.1|
1,1,2.1|
1,2,6.8|
2,0,2.8|
2,1,3.7|
2,2,4.5|
];
constraint_x10_x2=[
0,0,6.8|
0,1,8.8|
0,2,5.3|
1,0,9.7|
1,1,6.2|
1,2,2.8|
2,0,7.4|
2,1,8.2|
2,2,9|
];
constraint_x10_x3=[
0,0,3.7|
0,1,9.7|
0,2,6.9|
1,0,0.8|
1,1,8.8|
1,2,1.1|
2,0,4.4|
2,1,3.1|
2,2,0.54|
];
constraint_x10_x5=[
0,0,0.088|
0,1,4.1|
0,2,9.3|
1,0,8.6|
1,1,5.1|
1,2,5.5|
2,0,2.7|
2,1,7.2|
2,2,8.1|
];
constraint_x10_x7=[
0,0,3.6|
0,1,5.2|
0,2,3.9|
1,0,5.8|
1,1,8.4|
1,2,6.1|
2,0,0.71|
2,1,7.7|
2,2,2.8|
];
constraint_x11_x2=[
0,0,1.1|
0,1,5.6|
0,2,5.4|
1,0,8.8|
1,1,2.5|
1,2,1.1|
2,0,7.3|
2,1,1.9|
2,2,9.6|
];
constraint_x11_x3=[
0,0,8.8|
0,1,3.6|
0,2,2.8|
1,0,10|
1,1,5.7|
1,2,1.4|
2,0,5.8|
2,1,0.37|
2,2,7.7|
];
constraint_x11_x4=[
0,0,9.2|
0,1,1.6|
0,2,7.7|
1,0,7.3|
1,1,9.4|
1,2,5|
2,0,0.19|
2,1,4.5|
2,2,8.9|
];
constraint_x11_x6=[
0,0,8.3|
0,1,7.8|
0,2,1.9|
1,0,1.2|
1,1,1|
1,2,7.3|
2,0,2.3|
2,1,5.4|
2,2,9.3|
];
constraint_x11_x9=[
0,0,9.2|
0,1,6.6|
0,2,1.7|
1,0,9.7|
1,1,2.9|
1,2,5.6|
2,0,3.7|
2,1,7.6|
2,2,7.7|
];
constraint_x12_x1=[
0,0,6.9|
0,1,0.88|
0,2,4.9|
1,0,3|
1,1,8.7|
1,2,8.4|
2,0,4|
2,1,5.2|
2,2,6.8|
];
constraint_x12_x2=[
0,0,8.7|
0,1,2.6|
0,2,0.23|
1,0,1.9|
1,1,1.6|
1,2,5.2|
2,0,0.026|
2,1,5.5|
2,2,2.4|
];
constraint_x12_x8=[
0,0,3.5|
0,1,6.6|
0,2,7.8|
1,0,7.7|
1,1,2.4|
1,2,6.4|
2,0,5.1|
2,1,1.3|
2,2,9.2|
];
constraint_x12_x9=[
0,0,0.55|
0,1,6.6|
0,2,8.6|
1,0,5|
1,1,4.1|
1,2,7.3|
2,0,4|
2,1,7.4|
2,2,6.7|
];
constraint_x12_x10=[
0,0,8.3|
0,1,6|
0,2,0.86|
1,0,8.7|
1,1,9.4|
1,2,4.2|
2,0,5.5|
2,1,2.5|
2,2,2.8|
];
constraint_x12_x11=[
0,0,7.1|
0,1,7.1|
0,2,6.3|
1,0,1.3|
1,1,9.9|
1,2,0.16|
2,0,7|
2,1,3.9|
2,2,2.6|
];
constraint_x1_y1=[
0,0,9.7|
0,1,1.7|
0,2,8.1|
1,0,3.6|
1,1,2.4|
1,2,1.1|
2,0,7.5|
2,1,1.4|
2,2,5.7|
];
constraint_x2_y2=[
0,0,1|
0,1,2.7|
0,2,8|
1,0,3.6|
1,1,8.7|
1,2,9.2|
2,0,5.4|
2,1,7|
2,2,4.5|
];
constraint_x3_y3=[
0,0,8.5|
0,1,7.6|
0,2,6.2|
1,0,8.6|
1,1,8.4|
1,2,9.1|
2,0,1.1|
2,1,3.2|
2,2,6|
];
initial_distribution_y1=[0.17,0.8,0.035];
initial_distribution_y2=[0.51,0.052,0.44];
initial_distribution_y3=[0.45,0.43,0.12];
transition_y1=[
0.13,0.52,0.35|
0.27,0.57,0.16|
0.56,0.2,0.24|
];
transition_y2=[
0.0063,0.52,0.47|
0.29,0.67,0.043|
0.34,0.23,0.43|
];
transition_y3=[
0.3,0.31,0.39|
0.39,0.31,0.3|
0.42,0.35,0.23|
];
